outputs/case_151.model.txt
major_violation = False
correction_ordered = True
penalty_fine_amount = 600000
license_revoked = False
misconduct_17_employ_unqualified_recruiters = False
misconduct_8_misappropriate_premium_or_claim = False
misconduct_20_fail_to_reappoint_agent_after_resignation = False
violate_165_1_or_163_5_applied = False
violate_163_7 = False
misconduct_6_false_advertisement = False
misconduct_30_other_violations_of_rules_or_laws = False
misconduct_13_illegal_insurance_payment = False
misconduct_28_induce_contract_termination_or_loan_payment = False
misconduct_7_induce_policy_surrender_or_loan = False
misconduct_25_sell_unapproved_foreign_policy_discount_products = False
misconduct_3_unapproved_insurance_business = False
misconduct_22_use_unapproved_advertisement = False
violate_163_4_financial_or_business_management = False
misconduct_26_submit_false_or_incomplete_reports = False
misconduct_9_unauthorized_use_license = False
violation_163_4_7_165_1_163_5 = False
misconduct_23_pay_commission_to_non_actual_recruiters = False
misconduct_5_force_or_induce_contract = False
misconduct_27_hold_positions_in_insurance_or_association = False
misconduct_11_outside_license_scope = False
misconduct_1_false_report = False
misconduct_29_fail_to_fill_recruitment_report_truthfully = False
misconduct_21_fail_to_report_to_trade_association = False
misconduct_12_illegal_collection_of_money_or_benefits = False
misconduct_18_fail_to_cancel_license_in_time = False
misconduct_31_other_damaging_insurance_image = False
misconduct_2_unapproved_agent_business = False
misconduct_19_unauthorized_suspend_or_terminate_business = False
misconduct_16_transfer_unassigned_policy_documents = False
misconduct_14_spread_false_information = False
agent_misconduct = False
penalty = False
misconduct_4_hide_important_contract_info = False
penalty_fine_range = 1
misconduct_24_fail_to_confirm_consumer_suitability = False
misconduct_10_convicted_fraud_or_forgery = False
misconduct_15_authorize_others_to_operate = False